\ Model CASCADING_ILP
\ LP format - for model browsing. Use MPS format to capture full model detail.
Minimize
  a0 + a1 + a2 + a3 + a4 + a5 + a6 + a7 + a8 + a9 + a10 + a11 + a12 + a13
Subject To
 visible_implies_known_0: a0 + r0 >= 1
 visible_implies_known_1: a1 + r1 >= 1
 visible_implies_known_2: a2 + r2 >= 1
 visible_implies_known_3: a3 + r3 >= 1
 visible_implies_known_4: a4 + r4 >= 1
 visible_implies_known_5: a5 + r5 >= 1
 visible_implies_known_6: a6 + r6 >= 1
 visible_implies_known_7: a7 + r7 >= 1
 visible_implies_known_8: a8 + r8 >= 1
 visible_implies_known_9: a9 + r9 >= 1
 visible_implies_known_10: a10 + r10 >= 1
 visible_implies_known_11: a11 + r11 >= 1
 visible_implies_known_12: a12 + r12 >= 1
 visible_implies_known_13: a13 + r13 >= 1
 target_not_inferable: r0 = 0
 closure_e0_h1: - r0 + r1 >= 0
 closure_e0_h0: r0 - r1 >= 0
 closure_e1_h2: - r0 + r2 >= 0
 closure_e1_h0: r0 - r2 >= 0
 closure_e2_h1: r1 - r3 - r4 >= -1
 closure_e2_h3: - r1 + r3 - r4 >= -1
 closure_e2_h4: - r1 - r3 + r4 >= -1
 closure_e3_h1: r1 - r4 - r5 >= -1
 closure_e3_h5: - r1 - r4 + r5 >= -1
 closure_e3_h4: - r1 + r4 - r5 >= -1
 closure_e4_h1: r1 - r4 - r6 >= -1
 closure_e4_h6: - r1 - r4 + r6 >= -1
 closure_e4_h4: - r1 + r4 - r6 >= -1
 closure_e5_h1: r1 - r4 - r7 >= -1
 closure_e5_h7: - r1 - r4 + r7 >= -1
 closure_e5_h4: - r1 + r4 - r7 >= -1
 closure_e6_h2: - r1 + r2 >= 0
 closure_e6_h1: r1 - r2 >= 0
 closure_e7_h2: r2 - r7 - r8 >= -1
 closure_e7_h8: - r2 - r7 + r8 >= -1
 closure_e7_h7: - r2 + r7 - r8 >= -1
 closure_e8_h2: r2 - r6 - r8 >= -1
 closure_e8_h8: - r2 - r6 + r8 >= -1
 closure_e8_h6: - r2 + r6 - r8 >= -1
 closure_e9_h2: r2 - r3 - r9 >= -1
 closure_e9_h3: - r2 + r3 - r9 >= -1
 closure_e9_h9: - r2 - r3 + r9 >= -1
 closure_e10_h2: r2 - r4 - r6 >= -1
 closure_e10_h6: - r2 - r4 + r6 >= -1
 closure_e10_h4: - r2 + r4 - r6 >= -1
 closure_e11_h2: r2 - r6 - r9 >= -1
 closure_e11_h6: - r2 + r6 - r9 >= -1
 closure_e11_h9: - r2 - r6 + r9 >= -1
 closure_e12_h2: r2 - r4 - r7 >= -1
 closure_e12_h7: - r2 - r4 + r7 >= -1
 closure_e12_h4: - r2 + r4 - r7 >= -1
 closure_e13_h2: r2 - r5 - r8 >= -1
 closure_e13_h8: - r2 - r5 + r8 >= -1
 closure_e13_h5: - r2 + r5 - r8 >= -1
 closure_e14_h2: r2 - r3 - r4 >= -1
 closure_e14_h3: - r2 + r3 - r4 >= -1
 closure_e14_h4: - r2 - r3 + r4 >= -1
 closure_e15_h2: r2 - r7 - r9 >= -1
 closure_e15_h7: - r2 + r7 - r9 >= -1
 closure_e15_h9: - r2 - r7 + r9 >= -1
 closure_e16_h2: r2 - r5 - r9 >= -1
 closure_e16_h5: - r2 + r5 - r9 >= -1
 closure_e16_h9: - r2 - r5 + r9 >= -1
 closure_e17_h2: r2 - r3 - r8 >= -1
 closure_e17_h8: - r2 - r3 + r8 >= -1
 closure_e17_h3: - r2 + r3 - r8 >= -1
 closure_e18_h2: r2 - r4 - r5 >= -1
 closure_e18_h5: - r2 - r4 + r5 >= -1
 closure_e18_h4: - r2 + r4 - r5 >= -1
 closure_e19_h5: - r3 + r5 >= 0
 closure_e19_h3: r3 - r5 >= 0
 closure_e20_h8: - r3 + r8 - r9 >= -1
 closure_e20_h3: r3 - r8 - r9 >= -1
 closure_e20_h9: - r3 - r8 + r9 >= -1
 closure_e21_h3: r3 - r9 >= 0
 closure_e21_h9: - r3 + r9 >= 0
 closure_e22_h10: - r3 + r10 >= 0
 closure_e22_h3: r3 - r10 >= 0
 closure_e23_h11: - r3 - r9 + r11 >= -1
 closure_e23_h3: r3 - r9 - r11 >= -1
 closure_e23_h9: - r3 + r9 - r11 >= -1
 closure_e24_h3: r3 - r4 >= 0
 closure_e24_h4: - r3 + r4 >= 0
 closure_e25_h3: r3 - r7 >= 0
 closure_e25_h7: - r3 + r7 >= 0
 closure_e26_h3: r3 - r12 >= 0
 closure_e26_h12: - r3 + r12 >= 0
 closure_e27_h8: - r3 + r8 >= 0
 closure_e27_h3: r3 - r8 >= 0
 closure_e28_h6: - r3 + r6 >= 0
 closure_e28_h3: r3 - r6 >= 0
 closure_e29_h11: - r3 - r8 + r11 >= -1
 closure_e29_h8: - r3 + r8 - r11 >= -1
 closure_e29_h3: r3 - r8 - r11 >= -1
 closure_e30_h7: - r4 + r7 >= 0
 closure_e30_h4: r4 - r7 >= 0
 closure_e31_h6: - r4 + r6 >= 0
 closure_e31_h4: r4 - r6 >= 0
 closure_e32_h9: - r4 - r8 + r9 >= -1
 closure_e32_h8: - r4 + r8 - r9 >= -1
 closure_e32_h4: r4 - r8 - r9 >= -1
 closure_e33_h10: - r4 + r10 >= 0
 closure_e33_h4: r4 - r10 >= 0
 closure_e34_h8: - r4 + r8 >= 0
 closure_e34_h4: r4 - r8 >= 0
 closure_e35_h5: - r4 + r5 >= 0
 closure_e35_h4: r4 - r5 >= 0
 closure_e36_h12: - r4 + r12 >= 0
 closure_e36_h4: r4 - r12 >= 0
 closure_e37_h9: - r4 + r9 >= 0
 closure_e37_h4: r4 - r9 >= 0
 closure_e38_h5: r5 - r12 >= 0
 closure_e38_h12: - r5 + r12 >= 0
 closure_e39_h11: - r5 - r8 + r11 >= -1
 closure_e39_h8: - r5 + r8 - r11 >= -1
 closure_e39_h5: r5 - r8 - r11 >= -1
 closure_e40_h6: - r5 + r6 >= 0
 closure_e40_h5: r5 - r6 >= 0
 closure_e41_h5: r5 - r7 >= 0
 closure_e41_h7: - r5 + r7 >= 0
 closure_e42_h10: - r5 + r10 >= 0
 closure_e42_h5: r5 - r10 >= 0
 closure_e43_h8: - r5 + r8 - r9 >= -1
 closure_e43_h5: r5 - r8 - r9 >= -1
 closure_e43_h9: - r5 - r8 + r9 >= -1
 closure_e44_h5: r5 - r9 >= 0
 closure_e44_h9: - r5 + r9 >= 0
 closure_e45_h11: - r5 - r9 + r11 >= -1
 closure_e45_h5: r5 - r9 - r11 >= -1
 closure_e45_h9: - r5 + r9 - r11 >= -1
 closure_e46_h8: - r5 + r8 >= 0
 closure_e46_h5: r5 - r8 >= 0
 closure_e47_h11: - r6 - r9 + r11 >= -1
 closure_e47_h6: r6 - r9 - r11 >= -1
 closure_e47_h9: - r6 + r9 - r11 >= -1
 closure_e48_h6: r6 - r9 >= 0
 closure_e48_h9: - r6 + r9 >= 0
 closure_e49_h8: - r6 + r8 >= 0
 closure_e49_h6: r6 - r8 >= 0
 closure_e50_h11: - r6 - r8 + r11 >= -1
 closure_e50_h8: - r6 + r8 - r11 >= -1
 closure_e50_h6: r6 - r8 - r11 >= -1
 closure_e51_h6: r6 - r12 >= 0
 closure_e51_h12: - r6 + r12 >= 0
 closure_e52_h6: r6 - r7 >= 0
 closure_e52_h7: - r6 + r7 >= 0
 closure_e53_h8: - r6 + r8 - r9 >= -1
 closure_e53_h6: r6 - r8 - r9 >= -1
 closure_e53_h9: - r6 - r8 + r9 >= -1
 closure_e54_h10: - r6 + r10 >= 0
 closure_e54_h6: r6 - r10 >= 0
 closure_e55_h11: - r7 - r9 + r11 >= -1
 closure_e55_h7: r7 - r9 - r11 >= -1
 closure_e55_h9: - r7 + r9 - r11 >= -1
 closure_e56_h10: - r7 + r10 >= 0
 closure_e56_h7: r7 - r10 >= 0
 closure_e57_h8: - r7 + r8 - r9 >= -1
 closure_e57_h7: r7 - r8 - r9 >= -1
 closure_e57_h9: - r7 - r8 + r9 >= -1
 closure_e58_h8: - r7 + r8 >= 0
 closure_e58_h7: r7 - r8 >= 0
 closure_e59_h7: r7 - r12 >= 0
 closure_e59_h12: - r7 + r12 >= 0
 closure_e60_h7: r7 - r9 >= 0
 closure_e60_h9: - r7 + r9 >= 0
 closure_e61_h11: - r7 - r8 + r11 >= -1
 closure_e61_h8: - r7 + r8 - r11 >= -1
 closure_e61_h7: r7 - r8 - r11 >= -1
 closure_e62_h8: r8 - r9 - r12 >= -1
 closure_e62_h12: - r8 - r9 + r12 >= -1
 closure_e62_h9: - r8 + r9 - r12 >= -1
 closure_e63_h8: r8 - r9 >= 0
 closure_e63_h9: - r8 + r9 >= 0
 closure_e64_h10: - r8 + r10 >= 0
 closure_e64_h8: r8 - r10 >= 0
 closure_e65_h10: - r8 - r9 + r10 >= -1
 closure_e65_h8: r8 - r9 - r10 >= -1
 closure_e65_h9: - r8 + r9 - r10 >= -1
 closure_e66_h8: r8 - r12 >= 0
 closure_e66_h12: - r8 + r12 >= 0
 closure_e67_h12: - r9 + r12 >= 0
 closure_e67_h9: r9 - r12 >= 0
 closure_e68_h10: - r9 + r10 >= 0
 closure_e68_h9: r9 - r10 >= 0
 closure_e69_h10: r10 - r12 >= 0
 closure_e69_h12: - r10 + r12 >= 0
 closure_e70_h11: r11 - r13 >= 0
 closure_e70_h13: - r11 + r13 >= 0
Bounds
 a0 = 1
Binaries
 a0 r0 a1 r1 a2 r2 a3 r3 a4 r4 a5 r5 a6 r6 a7 r7 a8 r8 a9 r9 a10 r10 a11
 r11 a12 r12 a13 r13
End
